
Gurobi 12.0.2 (win64) logging started Sun Jun  8 11:32:53 2025

Set parameter LogFile to value "C:\Ioana\_uni\honours\slp\algorithm\Main_files\results\others\prox_tubules_new_model\Task_005_Sample004_irr_gurobi.log"
Gurobi Optimizer version 12.0.2 build v12.0.2rc0 (win64 - Windows 11.0 (26100.2))

CPU model: Intel(R) Core(TM) Ultra 5 125H, instruction set [SSE2|AVX|AVX2]
Thread count: 14 physical cores, 18 logical processors, using up to 18 threads

Non-default parameters:
TimeLimit  2200

Optimize a model with 47226 rows, 34501 columns and 146688 nonzeros
Model fingerprint: 0xaeccf968
Variable types: 17256 continuous, 17245 integer (17245 binary)
Coefficient statistics:
  Matrix range     [1e-04, 8e+04]
  Objective range  [1e-04, 3e+00]
  Bounds range     [1e+00, 1e+03]
  RHS range        [1e+00, 1e+00]
Presolve removed 30825 rows and 21548 columns
Presolve time: 0.33s
Presolved: 16401 rows, 12953 columns, 54579 nonzeros
Variable types: 6410 continuous, 6543 integer (6543 binary)

Root relaxation: objective 7.081015e-04, 1852 iterations, 0.10 seconds (0.22 work units)

    Nodes    |    Current Node    |     Objective Bounds      |     Work
 Expl Unexpl |  Obj  Depth IntInf | Incumbent    BestBd   Gap | It/Node Time

     0     0    0.00071    0   12          -    0.00071      -     -    0s
H    0     0                       0.4296266    0.00071   100%     -    0s
     0     0    0.11385    0   19    0.42963    0.11385  73.5%     -    0s
     0     0    0.12479    0    7    0.42963    0.12479  71.0%     -    0s
     0     0    0.41354    0   10    0.42963    0.41354  3.74%     -    0s
     0     0    0.41740    0    6    0.42963    0.41740  2.85%     -    0s
     0     0    0.42910    0    6    0.42963    0.42910  0.12%     -    0s

Cutting planes:
  Learned: 1
  Cover: 3
  Implied bound: 2
  MIR: 6
  Flow cover: 6
  Flow path: 2
  Network: 2
  Relax-and-lift: 1

Explored 1 nodes (2217 simplex iterations) in 0.78 seconds (0.88 work units)
Thread count was 18 (of 18 available processors)

Solution count 1: 0.429627 

Optimal solution found (tolerance 1.00e-04)
Best objective 4.296265617165e-01, best bound 4.296265617165e-01, gap 0.0000%
